167 166 164 165 203 204 202 201 200 199 198 183 185 184 194 195 196 197 205 206 207 208 209 210 211 212 213 214 215 216 217 223 224 222 221 220 218 219 193 192 191 190 226 225 189 227 228 229 230 231 533 532 531 489 488 534 535 487 486 490 491 493 524 525 492 526 527 528 529 530 233 232 234 235 236 237 240 239 238 246 247 245 244 243 242 241 257 256 248 249 250 251 252 254 253 255 261 260 259 258 262 263 264 265 266 267 271 268 270 269 272 273 274 275 292 291 293 294 295 296 297 298 299 300 301 302 508 507 509 510 511 512 513 514 515 516 517 522 523 521 520 518 519 496 497 498 502 503 504 506 307 303 304 306 319 320 321 317 318 305 308 505 309 310 311 313 312 451 501 500 499 452 453 440 441 450 449 448 446 447 380 379 378 377 314 316 315 376 375 374 373 322 323 324 325 326 327 328 329 366 330 331 332 288 289 290 276 277 278 279 282 281 280 287 286 285 284 283 334 335 333 336 337 338 339 340 341 344 343 342 365 367 368 369 370 372 371 396 395 394 393 391 392 381 390 389 388 387 386 382 383 384 385 409 405 406 408 407 397 398 399 400 404 403 402 401 360 359 358 361 362 363 364 346 345 347 348 349 350 351 352 353 354 355 357 356 412 411 410 418 419 417 413 414 415 416 420 421 422 423 424 425 426 427 428 429 431 430 432 433 434 435 436 437 438 445 444 443 442 439 454 455 456 457 458 459 460 461 462 463 464 465 466 467 468 469 470 471 495 494 472 473 474 570 569 568 20 19 18 17 571 572 573 0 1 2 3 4 5 6 7 8 9 10 11 16 15 14 13 12 23 22 31 32 30 29 28 25 24 21 26 27 567 475 476 477 478 479 480 481 482 483 485 484 536 537 539 538 540 176 177 178 187 188 186 182 179 181 180 169 171 170 172 175 174 173 108 109 111 110 107 542 541 543 544 545 546 547 103 104 105 106 117 122 123 71 121 120 119 118 95 96 97 94 93 92 91 555 556 557 558 559 550 552 553 554 98 99 100 102 101 551 548 549 564 566 565 563 562 561 560 34 33 36 37 38 35 40 41 39 42 43 44 45 46 47 48 49 54 52 50 51 84 85 86 87 90 89 88 78 62 79 80 81 82 83 53 55 56 57 58 59 60 61 63 64 76 77 75 74 73 72 65 66 67 68 70 69 124 125 126 127 128 116 115 114 112 113 131 130 129 132 133 134 135 136 137 138 139 140 141 144 143 142 151 150 149 152 148 147 146 145 158 157 153 156 159 155 154 160 161 162 168 163